400
[80,81,82,83,84,85,86,87,88,89,90,91,92,93,94,95,96,97,98,99,100,101,102,103,104,105,106,107,108,109,110,111,112,113,114,115,116,117,118,120,121,122,123,125,126,127,128,129,130,131,132,133,134,135,136,137,138,139,140,141,142,143,144,145,146,147,148,149,150,151,152,153,154,155,156,157,158,159,160,161,162,163,164,165,166,167,168,169,170,171,172,173,174,175,176,177,178,179,180,181,182,183,184,185,186,187,188,190,191,192,193,194,195,196,198,199,200,201,202,203,205,206,207,208,209,211,212,213,214,215,216,218,219,221,222,223,224,225,226,227,230,231,232,233,234,235,236,237,238,239,240,241,242,243,244,246,247,248,249,250,252,253,254,255,256,257,258,260,261,262,263,264,265,266,267,268,269,270,271,272,273,274,275,276,277,278,279,280]
[7,2,3,4,2,1,2,2,2,1,3,2,2,1,2,2,2,1,5,2,2,2,4,1,3,2,2,5,2,1,4,3,2,5,3,2,1,3,4,1,3,4,2,4,1,2,3,3,4,4,3,4,3,2,3,2,3,2,2,5,2,1,1,3,1,1,2,1,2,1,1,3,1,4,1,2,2,1,4,2,5,3,3,6,5,1,1,4,1,3,7,4,4,3,4,4,2,2,1,3,1,4,3,1,5,6,5,5,2,1,7,4,1,4,2,1,1,2,2,2,2,4,2,3,2,4,5,3,1,4,2,4,4,3,1,3,3,1,5,1,3,3,1,1,2,3,1,1,3,3,2,1,3,7,5,1,2,2,3,2,4,1,4,1,7,2,3,3,1,1,1,9,2,2,1,3,4,3,3,3,2,2,1,3,1,4,1,2]
